problems/csplib-prob015/SchursLemma-models/noch/O2/lingeling/model_1_2-4-9-solution000001.eprime-solution
language ESSENCE' 1.0

letting boxes_PartitionAsSet_ExplicitR6_ExplicitVarSizeWithDummy be
        [[1, 10, 10, 10, 10, 10, 10, 10, 10; int(1..9)], [2, 3, 10, 10, 10, 10, 10, 10, 10; int(1..9)],
         [4, 7, 8, 9, 10, 10, 10, 10, 10; int(1..9)], [5, 6, 10, 10, 10, 10, 10, 10, 10; int(1..9)]; int(1..4)]
